p cnf 126 612
1 -46 0
1 -47 0
46 -46 0
47 -47 0
16 -52 0
16 -53 0
52 -52 0
53 -53 0
31 -58 0
31 -59 0
58 -58 0
59 -59 0
-2 -46 0
-2 -47 0
46 -46 0
47 -47 0
-17 -52 0
-17 -53 0
52 -52 0
53 -53 0
-32 -58 0
-32 -59 0
58 -58 0
59 -59 0
3 -46 0
3 -47 0
46 -46 0
47 -47 0
18 -52 0
18 -53 0
52 -52 0
53 -53 0
33 -58 0
33 -59 0
58 -58 0
59 -59 0
-4 -46 0
-4 -47 0
46 -46 0
47 -47 0
-19 -52 0
-19 -53 0
52 -52 0
53 -53 0
-34 -58 0
-34 -59 0
58 -58 0
59 -59 0
-5 -46 0
-5 -47 0
46 -46 0
47 -47 0
-20 -52 0
-20 -53 0
52 -52 0
53 -53 0
-35 -58 0
-35 -59 0
58 -58 0
59 -59 0
6 -64 -46 0
-6 64 -46 0
6 64 -47 0
-6 -64 -47 0
21 -64 -52 0
-21 64 -52 0
21 64 -53 0
-21 -64 -53 0
36 -64 -58 0
-36 64 -58 0
36 64 -59 0
-36 -64 -59 0
7 -46 0
7 -47 0
46 -46 0
47 -47 0
22 -52 0
22 -53 0
52 -52 0
53 -53 0
37 -58 0
37 -59 0
58 -58 0
59 -59 0
8 -46 0
8 -47 0
46 -46 0
47 -47 0
23 -52 0
23 -53 0
52 -52 0
53 -53 0
38 -58 0
38 -59 0
58 -58 0
59 -59 0
9 -46 0
9 -47 0
46 -46 0
47 -47 0
24 -52 0
24 -53 0
52 -52 0
53 -53 0
39 -58 0
39 -59 0
58 -58 0
59 -59 0
10 -65 -46 0
-10 65 -46 0
10 65 -47 0
-10 -65 -47 0
25 -65 -52 0
-25 65 -52 0
25 65 -53 0
-25 -65 -53 0
40 -65 -58 0
-40 65 -58 0
40 65 -59 0
-40 -65 -59 0
11 -46 0
11 -47 0
46 -46 0
47 -47 0
26 -52 0
26 -53 0
52 -52 0
53 -53 0
41 -58 0
41 -59 0
58 -58 0
59 -59 0
12 -46 0
12 -47 0
46 -46 0
47 -47 0
27 -52 0
27 -53 0
52 -52 0
53 -53 0
42 -58 0
42 -59 0
58 -58 0
59 -59 0
13 -46 0
13 -47 0
46 -46 0
47 -47 0
28 -52 0
28 -53 0
52 -52 0
53 -53 0
43 -58 0
43 -59 0
58 -58 0
59 -59 0
14 -46 0
14 -47 0
46 -46 0
47 -47 0
29 -52 0
29 -53 0
52 -52 0
53 -53 0
44 -58 0
44 -59 0
58 -58 0
59 -59 0
15 -46 0
15 -47 0
46 -46 0
47 -47 0
30 -52 0
30 -53 0
52 -52 0
53 -53 0
45 -58 0
45 -59 0
58 -58 0
59 -59 0
-109 46 0
109 -46 0
-110 47 0
109 -47 0
-109 -46 0
-110 -47 0
-115 46 109 0
115 -46 0
115 -109 0
-116 47 110 0
116 -47 0
116 -110 0
-115 -52 0
-116 -53 0
-121 52 115 0
121 -52 0
121 -115 0
-122 53 116 0
122 -53 0
122 -116 0
-121 -58 0
-122 -59 0
121 0
122 0
1 -48 0
1 -49 0
48 -48 0
49 -49 0
16 -54 0
16 -55 0
54 -54 0
55 -55 0
31 -60 0
31 -61 0
60 -60 0
61 -61 0
-2 -48 0
-2 -49 0
48 -48 0
49 -49 0
-17 -54 0
-17 -55 0
54 -54 0
55 -55 0
-32 -60 0
-32 -61 0
60 -60 0
61 -61 0
3 -48 0
3 -49 0
48 -48 0
49 -49 0
18 -54 0
18 -55 0
54 -54 0
55 -55 0
33 -60 0
33 -61 0
60 -60 0
61 -61 0
-4 -48 0
-4 -49 0
48 -48 0
49 -49 0
-19 -54 0
-19 -55 0
54 -54 0
55 -55 0
-34 -60 0
-34 -61 0
60 -60 0
61 -61 0
-5 -48 0
-5 -49 0
48 -48 0
49 -49 0
-20 -54 0
-20 -55 0
54 -54 0
55 -55 0
-35 -60 0
-35 -61 0
60 -60 0
61 -61 0
-6 -48 0
-6 -49 0
48 -48 0
49 -49 0
-21 -54 0
-21 -55 0
54 -54 0
55 -55 0
-36 -60 0
-36 -61 0
60 -60 0
61 -61 0
7 -66 -48 0
-7 66 -48 0
7 66 -49 0
-7 -66 -49 0
22 -66 -54 0
-22 66 -54 0
22 66 -55 0
-22 -66 -55 0
37 -66 -60 0
-37 66 -60 0
37 66 -61 0
-37 -66 -61 0
8 -67 -48 0
-8 67 -48 0
8 67 -49 0
-8 -67 -49 0
23 -67 -54 0
-23 67 -54 0
23 67 -55 0
-23 -67 -55 0
38 -67 -60 0
-38 67 -60 0
38 67 -61 0
-38 -67 -61 0
9 -68 -48 0
-9 68 -48 0
9 68 -49 0
-9 -68 -49 0
24 -68 -54 0
-24 68 -54 0
24 68 -55 0
-24 -68 -55 0
39 -68 -60 0
-39 68 -60 0
39 68 -61 0
-39 -68 -61 0
-10 -48 0
-10 -49 0
48 -48 0
49 -49 0
-25 -54 0
-25 -55 0
54 -54 0
55 -55 0
-40 -60 0
-40 -61 0
60 -60 0
61 -61 0
11 -48 0
11 -49 0
48 -48 0
49 -49 0
26 -54 0
26 -55 0
54 -54 0
55 -55 0
41 -60 0
41 -61 0
60 -60 0
61 -61 0
12 -48 0
12 -49 0
48 -48 0
49 -49 0
27 -54 0
27 -55 0
54 -54 0
55 -55 0
42 -60 0
42 -61 0
60 -60 0
61 -61 0
-13 -48 0
-13 -49 0
48 -48 0
49 -49 0
-28 -54 0
-28 -55 0
54 -54 0
55 -55 0
-43 -60 0
-43 -61 0
60 -60 0
61 -61 0
14 -48 0
14 -49 0
48 -48 0
49 -49 0
29 -54 0
29 -55 0
54 -54 0
55 -55 0
44 -60 0
44 -61 0
60 -60 0
61 -61 0
15 -48 0
15 -49 0
48 -48 0
49 -49 0
30 -54 0
30 -55 0
54 -54 0
55 -55 0
45 -60 0
45 -61 0
60 -60 0
61 -61 0
-111 48 0
111 -48 0
-112 49 0
111 -49 0
-111 -48 0
-112 -49 0
-117 48 111 0
117 -48 0
117 -111 0
-118 49 112 0
118 -49 0
118 -112 0
-117 -54 0
-118 -55 0
-123 54 117 0
123 -54 0
123 -117 0
-124 55 118 0
124 -55 0
124 -118 0
-123 -60 0
-124 -61 0
123 0
124 0
1 -50 0
1 -51 0
50 -50 0
51 -51 0
16 -56 0
16 -57 0
56 -56 0
57 -57 0
31 -62 0
31 -63 0
62 -62 0
63 -63 0
-2 -50 0
-2 -51 0
50 -50 0
51 -51 0
-17 -56 0
-17 -57 0
56 -56 0
57 -57 0
-32 -62 0
-32 -63 0
62 -62 0
63 -63 0
3 -50 0
3 -51 0
50 -50 0
51 -51 0
18 -56 0
18 -57 0
56 -56 0
57 -57 0
33 -62 0
33 -63 0
62 -62 0
63 -63 0
-4 -50 0
-4 -51 0
50 -50 0
51 -51 0
-19 -56 0
-19 -57 0
56 -56 0
57 -57 0
-34 -62 0
-34 -63 0
62 -62 0
63 -63 0
-5 -50 0
-5 -51 0
50 -50 0
51 -51 0
-20 -56 0
-20 -57 0
56 -56 0
57 -57 0
-35 -62 0
-35 -63 0
62 -62 0
63 -63 0
-6 -50 0
-6 -51 0
50 -50 0
51 -51 0
-21 -56 0
-21 -57 0
56 -56 0
57 -57 0
-36 -62 0
-36 -63 0
62 -62 0
63 -63 0
7 -69 -50 0
-7 69 -50 0
7 69 -51 0
-7 -69 -51 0
22 -69 -56 0
-22 69 -56 0
22 69 -57 0
-22 -69 -57 0
37 -69 -62 0
-37 69 -62 0
37 69 -63 0
-37 -69 -63 0
8 -70 -50 0
-8 70 -50 0
8 70 -51 0
-8 -70 -51 0
23 -70 -56 0
-23 70 -56 0
23 70 -57 0
-23 -70 -57 0
38 -70 -62 0
-38 70 -62 0
38 70 -63 0
-38 -70 -63 0
9 -71 -50 0
-9 71 -50 0
9 71 -51 0
-9 -71 -51 0
24 -71 -56 0
-24 71 -56 0
24 71 -57 0
-24 -71 -57 0
39 -71 -62 0
-39 71 -62 0
39 71 -63 0
-39 -71 -63 0
10 -72 -50 0
-10 72 -50 0
10 72 -51 0
-10 -72 -51 0
25 -72 -56 0
-25 72 -56 0
25 72 -57 0
-25 -72 -57 0
40 -72 -62 0
-40 72 -62 0
40 72 -63 0
-40 -72 -63 0
11 -50 0
11 -51 0
50 -50 0
51 -51 0
26 -56 0
26 -57 0
56 -56 0
57 -57 0
41 -62 0
41 -63 0
62 -62 0
63 -63 0
12 -50 0
12 -51 0
50 -50 0
51 -51 0
27 -56 0
27 -57 0
56 -56 0
57 -57 0
42 -62 0
42 -63 0
62 -62 0
63 -63 0
13 -50 0
13 -51 0
50 -50 0
51 -51 0
28 -56 0
28 -57 0
56 -56 0
57 -57 0
43 -62 0
43 -63 0
62 -62 0
63 -63 0
14 -73 -50 0
-14 73 -50 0
14 73 -51 0
-14 -73 -51 0
29 -73 -56 0
-29 73 -56 0
29 73 -57 0
-29 -73 -57 0
44 -73 -62 0
-44 73 -62 0
44 73 -63 0
-44 -73 -63 0
15 -50 0
15 -51 0
50 -50 0
51 -51 0
30 -56 0
30 -57 0
56 -56 0
57 -57 0
45 -62 0
45 -63 0
62 -62 0
63 -63 0
-113 50 0
113 -50 0
-114 51 0
113 -51 0
-113 -50 0
-114 -51 0
-119 50 113 0
119 -50 0
119 -113 0
-120 51 114 0
120 -51 0
120 -114 0
-119 -56 0
-120 -57 0
-125 56 119 0
125 -56 0
125 -119 0
-126 57 120 0
126 -57 0
126 -120 0
-125 -62 0
-126 -63 0
125 0
126 0
